problem_generation/data/GISP/train/er_n=64_m=1233_p=0.60_SET2_setparam=100.00_alpha=0.50_232.lp
maximize
OBJ:100x0 + 100x1 + 100x2 + 100x3 + 100x4 + 100x5 + 100x6 + 100x7 + 100x8 + 100x9 + 100x10 + 100x11 + 100x12 + 100x13 + 100x14 + 100x15 + 100x16 + 100x17 + 100x18 + 100x19 + 100x20 + 100x21 + 100x22 + 100x23 + 100x24 + 100x25 + 100x26 + 100x27 + 100x28 + 100x29 + 100x30 + 100x31 + 100x32 + 100x33 + 100x34 + 100x35 + 100x36 + 100x37 + 100x38 + 100x39 + 100x40 + 100x41 + 100x42 + 100x43 + 100x44 + 100x45 + 100x46 + 100x47 + 100x48 + 100x49 + 100x50 + 100x51 + 100x52 + 100x53 + 100x54 + 100x55 + 100x56 + 100x57 + 100x58 + 100x59 + 100x60 + 100x61 + 100x62 + 100x63 - y36_62 - y15_39 - y29_32 - y29_41 - y21_37 - y29_50 - y21_46 - y11_23 - y10_27 - y2_41 - y10_54 - y25_52 - y2_59 - y14_24 - y22_37 - y3_42 - y15_16 - y7_12 - y15_25 - y18_21 - y28_53 - y7_30 - y9_49 - y18_30 - y5_60 - y28_62 - y9_58 - y0_9 - y29_45 - y40_45 - y29_54 - y21_59 - y10_22 - y25_29 - y33_42 - y2_36 - y25_38 - y10_49 - y2_45 - y3_10 - y25_47 - y51_59 - y14_19 - y32_55 - y3_28 - y14_28 - y35_60 - y16_56 - y17_39 - y28_39 - y36_52 - y47_52 - y28_48 - y36_61 - y17_57 - y28_57 - y6_29 - y29_31 - y9_62 - y29_40 - y6_47 - y2_13 - y10_26 - y10_35 - y12_63 - y25_42 - y32_41 - y51_54 - y43_50 - y22_27 - y35_46 - y16_60 - y7_11 - y9_30 - y55_60 - y9_39 - y17_61 - y28_61 - y6_33 - y2_8 - y10_21 - y2_17 - y20_53 - y10_30 - y31_53 - y12_58 - y23_58 - y2_35 - y32_45 - y13_41 - y24_41 - y43_54 - y24_50 - y35_50 - y43_63 - y24_59 - y5_27 - y17_29 - y17_38 - y36_51 - y28_47 - y9_43 - y29_30 - y39_43 - y20_39 - y20_48 - y20_57 - y31_57 - y54_59 - y2_30 - y23_62 - y3_4 - y35_36 - y43_49 - y24_45 - y32_58 - y43_58 - y1_52 - y35_54 - y1_61 - y13_63 - y9_11 - y36_37 - y9_20 - y9_29 - y5_49 - y6_14 - y27_55 - y21_30 - y19_60 - y42_62 - y20_34 - y31_34 - y31_43 - y54_63 - y12_57 - y13_22 - y32_35 - y16_18 - y13_31 - y32_44 - y16_27 - y1_38 - y13_40 - y35_40 - y43_53 - y1_47 - y13_49 - y24_49 - y16_45 - y35_49 - y16_54 - y5_35 - y9_33 - y27_50 - y50_52 - y8_46 - y42_48 - y30_55 - y0_51 - y12_43 - y23_43 - y4_39 - y23_52 - y13_26 - y24_26 - y32_39 - y34_58 - y24_35 - y16_31 - y35_44 - y16_40 - y5_12 - y46_50 - y38_46 - y57_59 - y15_53 - y5_30 - y26_62 - y18_58 - y0_37 - y30_59 - y0_55 - y39_46 - y31_42 - y23_38 - y4_34 - y23_47 - y1_10 - y12_56 - y1_19 - y4_52 - y45_62 - y1_37 - y37_58 - y1_46 - y9_14 - y57_63 - y7_44 - y26_57 - y49_59 - y7_53 - y18_62 - y27_40 - y8_36 - y30_36 - y0_32 - y30_45 - y42_47 - y27_58 - y0_41 - y42_56 - y0_50 - y8_63 - y19_63 - y20_28 - y0_59 - y23_24 - y39_41 - y20_37 - y4_20 - y41_60 - y4_38 - y4_47 - y16_21 - y37_53 - y3_60 - y26_43 - y57_58 - y26_52 - y38_54 - y7_48 - y8_13 - y49_63 - y27_35 - y0_18 - y0_27 - y8_40 - y19_40 - y11_36 - y8_49 - y19_49 - y0_45 - y11_45 - y30_58 - y20_23 - y0_54 - y11_54 - y12_19 - y20_32 - y12_28 - y23_37 - y25_56 - y4_33 - y37_39 - y22_50 - y3_46 - y14_46 - y37_48 - y37_57 - y15_20 - y26_29 - y15_38 - y38_40 - y38_49 - y18_43 - y15_56 - y8_17 - y0_13 - y11_13 - y18_61 - y0_22 - y19_35 - y0_31 - y11_31 - y8_44 - y19_44 - y11_49 - y12_14 - y10_53 - y33_55 - y44_55 - y25_51 - y4_28 - y10_62 - y22_36 - y34_38 - y45_47 - y37_43 - y34_56 - y45_56 - y3_59 - y26_33 - y15_42 - y26_51 - y18_47 - y11_26 - y29_62 - y0_35 - y41_45 - y33_41 - y41_54 - y33_50 - y44_50 - y44_59 - y25_55 - y22_31 - y2_62 - y3_36 - y37_38 - y22_49 - y45_51 - y14_45 - y3_54 - y7_15 - y18_24 - y26_37 - y18_33 - y26_46 - y0_3 - y0_12 - y11_12 - y19_25 - y48_61 - y11_21 - y41_49 - y25_41 - y10_52 - y2_48 - y3_13 - y33_63 - y44_63 - y25_59 - y34_37 - y3_31 - y3_49 - y7_10 - y15_32 - y26_32 - y7_28 - y28_60 - y18_37 - y9_56 - y8_11 - y48_56 - y21_39 - y6_59 - y29_61 - y10_20 - y25_27 - y33_40 - y2_52 - y25_54 - y22_30 - y3_26 - y14_26 - y22_39 - y13_58 - y24_58 - y32_62 - y43_62 - y3_44 - y14_44 - y36_50 - y7_23 - y9_42 - y17_55 - y9_51 - y5_62 - y21_43 - y40_56 - y10_33 - y33_35 - y25_31 - y10_42 - y10_51 - y51_52 - y2_47 - y3_12 - y22_25 - y14_21 - y13_53 - y1_60 - y13_62 - y24_62 - y16_58 - y17_32 - y28_32 - y7_9 - y9_37 - y5_48 - y36_63 - y9_46 - y47_63 - y17_59 - y6_22 - y28_59 - y9_55 - y39_55 - y10_28 - y2_24 - y25_26 - y32_34 - y2_42 - y32_43 - y3_16 - y14_16 - y14_25 - y16_44 - y32_61 - y35_57 - y17_27 - y36_40 - y9_23 - y17_36 - y47_49 - y28_45 - y6_8 - y28_54 - y9_50 - y5_61 - y28_63 - y9_59 - y50_60 - y6_35 - y6_44 - y21_42 - y2_10 - y31_55 - y10_32 - y12_60 - y24_34 - y32_47 - y51_60 - y24_43 - y35_43 - y43_56 - y1_50 - y35_52 - y35_61 - y16_57 - y17_22 - y5_29 - y17_31 - y9_27 - y17_40 - y9_36 - y6_30 - y27_62 - y19_58 - y2_5 - y31_41 - y39_54 - y2_14 - y12_46 - y2_23 - y24_29 - y16_25 - y16_34 - y24_47 - y35_47 - y16_43 - y1_63 - y16_61 - y5_24 - y17_26 - y6_7 - y9_40 - y5_51 - y6_16 - y19_53 - y30_53 - y12_32 - y39_58 - y12_41 - y23_41 - y4_37 - y23_50 - y12_59 - y13_24 - y1_31 - y24_33 - y16_29 - y13_42 - y35_42 - y1_49 - y35_51 - y1_58 - y38_44 - y5_19 - y5_28 - y38_62 - y27_43 - y30_39 - y30_48 - y0_44 - y11_44 - y30_57 - y42_59 - y0_53 - y11_53 - y12_18 - y20_31 - y0_62 - y2_4 - y23_36 - y1_8 - y31_58 - y12_54 - y13_19 - y16_24 - y1_35 - y35_37 - y16_42 - y38_39 - y26_55 - y49_57 - y7_60 - y30_34 - y27_47 - y30_43 - y30_52 - y42_54 - y12_13 - y8_61 - y30_61 - y0_57 - y12_31 - y20_44 - y4_36 - y12_49 - y1_12 - y13_14 - y4_45 - y1_21 - y4_54 - y16_28 - y3_58 - y15_41 - y46_56 - y7_55 - y18_55 - y27_33 - y8_38 - y19_38 - y42_49 - y0_43 - y11_43 - y8_56 - y30_56 - y11_52 - y23_26 - y12_35 - y23_44 - y1_7 - y25_63 - y1_16 - y53_54 - y22_48 - y45_50 - y53_63 - y34_59 - y3_62 - y15_27 - y14_62 - y26_27 - y26_36 - y26_54 - y38_56 - y49_56 - y7_50 - y15_63 - y26_63 - y18_59 - y8_24 - y11_20 - y0_29 - y19_42 - y19_51 - y60_61 - y33_53 - y12_30 - y10_60 - y33_62 - y1_2 - y25_58 - y1_11 - y34_54 - y45_54 - y34_63 - y15_22 - y7_18 - y7_27 - y18_27 - y26_49 - y18_45 - y15_58 - y8_19 - y18_63 - y19_37 - y0_42 - y41_43 - y33_39 - y4_12 - y10_46 - y52_61 - y4_21 - y2_60 - y22_38 - y3_52 - y14_52 - y15_17 - y37_54 - y7_22 - y18_22 - y15_35 - y7_31 - y17_63 - y7_40 - y0_1 - y8_14 - y48_50 - y0_10 - y29_46 - y6_53 - y40_55 - y21_60 - y33_43 - y4_16 - y10_50 - y10_59 - y44_61 - y2_55 - y34_44 - y22_51
 Subject to
C1: x0+x1-y0_1 <=1 
C2: x0+x2 <=1 
C3: x0+x3-y0_3 <=1 
C4: x0+x5 <=1 
C5: x0+x6 <=1 
C6: x0+x8 <=1 
C7: x0+x9-y0_9 <=1 
C8: x0+x10-y0_10 <=1 
C9: x0+x11 <=1 
C10: x0+x12-y0_12 <=1 
C11: x0+x13-y0_13 <=1 
C12: x0+x14 <=1 
C13: x0+x15 <=1 
C14: x0+x18-y0_18 <=1 
C15: x0+x22-y0_22 <=1 
C16: x0+x23 <=1 
C17: x0+x24 <=1 
C18: x0+x25 <=1 
C19: x0+x26 <=1 
C20: x0+x27-y0_27 <=1 
C21: x0+x29-y0_29 <=1 
C22: x0+x30 <=1 
C23: x0+x31-y0_31 <=1 
C24: x0+x32-y0_32 <=1 
C25: x0+x35-y0_35 <=1 
C26: x0+x36 <=1 
C27: x0+x37-y0_37 <=1 
C28: x0+x38 <=1 
C29: x0+x40 <=1 
C30: x0+x41-y0_41 <=1 
C31: x0+x42-y0_42 <=1 
C32: x0+x43-y0_43 <=1 
C33: x0+x44-y0_44 <=1 
C34: x0+x45-y0_45 <=1 
C35: x0+x46 <=1 
C36: x0+x48 <=1 
C37: x0+x50-y0_50 <=1 
C38: x0+x51-y0_51 <=1 
C39: x0+x53-y0_53 <=1 
C40: x0+x54-y0_54 <=1 
C41: x0+x55-y0_55 <=1 
C42: x0+x57-y0_57 <=1 
C43: x0+x58 <=1 
C44: x0+x59-y0_59 <=1 
C45: x0+x60 <=1 
C46: x0+x62-y0_62 <=1 
C47: x0+x63 <=1 
C48: x1+x2-y1_2 <=1 
C49: x1+x4 <=1 
C50: x1+x5 <=1 
C51: x1+x6 <=1 
C52: x1+x7-y1_7 <=1 
C53: x1+x8-y1_8 <=1 
C54: x1+x9 <=1 
C55: x1+x10-y1_10 <=1 
C56: x1+x11-y1_11 <=1 
C57: x1+x12-y1_12 <=1 
C58: x1+x14 <=1 
C59: x1+x15 <=1 
C60: x1+x16-y1_16 <=1 
C61: x1+x19-y1_19 <=1 
C62: x1+x21-y1_21 <=1 
C63: x1+x23 <=1 
C64: x1+x24 <=1 
C65: x1+x26 <=1 
C66: x1+x27 <=1 
C67: x1+x28 <=1 
C68: x1+x31-y1_31 <=1 
C69: x1+x35-y1_35 <=1 
C70: x1+x37-y1_37 <=1 
C71: x1+x38-y1_38 <=1 
C72: x1+x39 <=1 
C73: x1+x41 <=1 
C74: x1+x45 <=1 
C75: x1+x46-y1_46 <=1 
C76: x1+x47-y1_47 <=1 
C77: x1+x48 <=1 
C78: x1+x49-y1_49 <=1 
C79: x1+x50-y1_50 <=1 
C80: x1+x52-y1_52 <=1 
C81: x1+x53 <=1 
C82: x1+x57 <=1 
C83: x1+x58-y1_58 <=1 
C84: x1+x59 <=1 
C85: x1+x60-y1_60 <=1 
C86: x1+x61-y1_61 <=1 
C87: x1+x63-y1_63 <=1 
C88: x2+x3 <=1 
C89: x2+x4-y2_4 <=1 
C90: x2+x5-y2_5 <=1 
C91: x2+x8-y2_8 <=1 
C92: x2+x10-y2_10 <=1 
C93: x2+x12 <=1 
C94: x2+x13-y2_13 <=1 
C95: x2+x14-y2_14 <=1 
C96: x2+x15 <=1 
C97: x2+x17-y2_17 <=1 
C98: x2+x18 <=1 
C99: x2+x22 <=1 
C100: x2+x23-y2_23 <=1 
C101: x2+x24-y2_24 <=1 
C102: x2+x26 <=1 
C103: x2+x30-y2_30 <=1 
C104: x2+x34 <=1 
C105: x2+x35-y2_35 <=1 
C106: x2+x36-y2_36 <=1 
C107: x2+x39 <=1 
C108: x2+x41-y2_41 <=1 
C109: x2+x42-y2_42 <=1 
C110: x2+x45-y2_45 <=1 
C111: x2+x47-y2_47 <=1 
C112: x2+x48-y2_48 <=1 
C113: x2+x49 <=1 
C114: x2+x50 <=1 
C115: x2+x51 <=1 
C116: x2+x52-y2_52 <=1 
C117: x2+x55-y2_55 <=1 
C118: x2+x58 <=1 
C119: x2+x59-y2_59 <=1 
C120: x2+x60-y2_60 <=1 
C121: x2+x62-y2_62 <=1 
C122: x3+x4-y3_4 <=1 
C123: x3+x10-y3_10 <=1 
C124: x3+x12-y3_12 <=1 
C125: x3+x13-y3_13 <=1 
C126: x3+x16-y3_16 <=1 
C127: x3+x18 <=1 
C128: x3+x20 <=1 
C129: x3+x21 <=1 
C130: x3+x22 <=1 
C131: x3+x24 <=1 
C132: x3+x25 <=1 
C133: x3+x26-y3_26 <=1 
C134: x3+x28-y3_28 <=1 
C135: x3+x29 <=1 
C136: x3+x30 <=1 
C137: x3+x31-y3_31 <=1 
C138: x3+x32 <=1 
C139: x3+x35 <=1 
C140: x3+x36-y3_36 <=1 
C141: x3+x40 <=1 
C142: x3+x41 <=1 
C143: x3+x42-y3_42 <=1 
C144: x3+x43 <=1 
C145: x3+x44-y3_44 <=1 
C146: x3+x46-y3_46 <=1 
C147: x3+x47 <=1 
C148: x3+x49-y3_49 <=1 
C149: x3+x50 <=1 
C150: x3+x51 <=1 
C151: x3+x52-y3_52 <=1 
C152: x3+x54-y3_54 <=1 
C153: x3+x55 <=1 
C154: x3+x58-y3_58 <=1 
C155: x3+x59-y3_59 <=1 
C156: x3+x60-y3_60 <=1 
C157: x3+x61 <=1 
C158: x3+x62-y3_62 <=1 
C159: x4+x5 <=1 
C160: x4+x6 <=1 
C161: x4+x7 <=1 
C162: x4+x11 <=1 
C163: x4+x12-y4_12 <=1 
C164: x4+x13 <=1 
C165: x4+x16-y4_16 <=1 
C166: x4+x18 <=1 
C167: x4+x20-y4_20 <=1 
C168: x4+x21-y4_21 <=1 
C169: x4+x22 <=1 
C170: x4+x23 <=1 
C171: x4+x25 <=1 
C172: x4+x28-y4_28 <=1 
C173: x4+x33-y4_33 <=1 
C174: x4+x34-y4_34 <=1 
C175: x4+x35 <=1 
C176: x4+x36-y4_36 <=1 
C177: x4+x37-y4_37 <=1 
C178: x4+x38-y4_38 <=1 
C179: x4+x39-y4_39 <=1 
C180: x4+x40 <=1 
C181: x4+x41 <=1 
C182: x4+x43 <=1 
C183: x4+x44 <=1 
C184: x4+x45-y4_45 <=1 
C185: x4+x47-y4_47 <=1 
C186: x4+x51 <=1 
C187: x4+x52-y4_52 <=1 
C188: x4+x53 <=1 
C189: x4+x54-y4_54 <=1 
C190: x4+x55 <=1 
C191: x4+x58 <=1 
C192: x4+x59 <=1 
C193: x4+x62 <=1 
C194: x4+x63 <=1 
C195: x5+x6 <=1 
C196: x5+x9 <=1 
C197: x5+x10 <=1 
C198: x5+x11 <=1 
C199: x5+x12-y5_12 <=1 
C200: x5+x16 <=1 
C201: x5+x17 <=1 
C202: x5+x19-y5_19 <=1 
C203: x5+x22 <=1 
C204: x5+x23 <=1 
C205: x5+x24-y5_24 <=1 
C206: x5+x26 <=1 
C207: x5+x27-y5_27 <=1 
C208: x5+x28-y5_28 <=1 
C209: x5+x29-y5_29 <=1 
C210: x5+x30-y5_30 <=1 
C211: x5+x33 <=1 
C212: x5+x35-y5_35 <=1 
C213: x5+x39 <=1 
C214: x5+x41 <=1 
C215: x5+x44 <=1 
C216: x5+x45 <=1 
C217: x5+x47 <=1 
C218: x5+x48-y5_48 <=1 
C219: x5+x49-y5_49 <=1 
C220: x5+x51-y5_51 <=1 
C221: x5+x52 <=1 
C222: x5+x60-y5_60 <=1 
C223: x5+x61-y5_61 <=1 
C224: x5+x62-y5_62 <=1 
C225: x6+x7-y6_7 <=1 
C226: x6+x8-y6_8 <=1 
C227: x6+x11 <=1 
C228: x6+x13 <=1 
C229: x6+x14-y6_14 <=1 
C230: x6+x16-y6_16 <=1 
C231: x6+x20 <=1 
C232: x6+x22-y6_22 <=1 
C233: x6+x23 <=1 
C234: x6+x24 <=1 
C235: x6+x26 <=1 
C236: x6+x29-y6_29 <=1 
C237: x6+x30-y6_30 <=1 
C238: x6+x33-y6_33 <=1 
C239: x6+x35-y6_35 <=1 
C240: x6+x36 <=1 
C241: x6+x38 <=1 
C242: x6+x39 <=1 
C243: x6+x42 <=1 
C244: x6+x44-y6_44 <=1 
C245: x6+x46 <=1 
C246: x6+x47-y6_47 <=1 
C247: x6+x48 <=1 
C248: x6+x49 <=1 
C249: x6+x51 <=1 
C250: x6+x52 <=1 
C251: x6+x53-y6_53 <=1 
C252: x6+x56 <=1 
C253: x6+x59-y6_59 <=1 
C254: x6+x61 <=1 
C255: x6+x62 <=1 
C256: x7+x8 <=1 
C257: x7+x9-y7_9 <=1 
C258: x7+x10-y7_10 <=1 
C259: x7+x11-y7_11 <=1 
C260: x7+x12-y7_12 <=1 
C261: x7+x13 <=1 
C262: x7+x14 <=1 
C263: x7+x15-y7_15 <=1 
C264: x7+x16 <=1 
C265: x7+x18-y7_18 <=1 
C266: x7+x20 <=1 
C267: x7+x21 <=1 
C268: x7+x22-y7_22 <=1 
C269: x7+x23-y7_23 <=1 
C270: x7+x25 <=1 
C271: x7+x26 <=1 
C272: x7+x27-y7_27 <=1 
C273: x7+x28-y7_28 <=1 
C274: x7+x29 <=1 
C275: x7+x30-y7_30 <=1 
C276: x7+x31-y7_31 <=1 
C277: x7+x32 <=1 
C278: x7+x34 <=1 
C279: x7+x36 <=1 
C280: x7+x39 <=1 
C281: x7+x40-y7_40 <=1 
C282: x7+x43 <=1 
C283: x7+x44-y7_44 <=1 
C284: x7+x45 <=1 
C285: x7+x46 <=1 
C286: x7+x47 <=1 
C287: x7+x48-y7_48 <=1 
C288: x7+x50-y7_50 <=1 
C289: x7+x53-y7_53 <=1 
C290: x7+x55-y7_55 <=1 
C291: x7+x56 <=1 
C292: x7+x58 <=1 
C293: x7+x60-y7_60 <=1 
C294: x7+x62 <=1 
C295: x8+x11-y8_11 <=1 
C296: x8+x13-y8_13 <=1 
C297: x8+x14-y8_14 <=1 
C298: x8+x17-y8_17 <=1 
C299: x8+x19-y8_19 <=1 
C300: x8+x22 <=1 
C301: x8+x23 <=1 
C302: x8+x24-y8_24 <=1 
C303: x8+x25 <=1 
C304: x8+x28 <=1 
C305: x8+x29 <=1 
C306: x8+x34 <=1 
C307: x8+x36-y8_36 <=1 
C308: x8+x38-y8_38 <=1 
C309: x8+x40-y8_40 <=1 
C310: x8+x41 <=1 
C311: x8+x44-y8_44 <=1 
C312: x8+x45 <=1 
C313: x8+x46-y8_46 <=1 
C314: x8+x49-y8_49 <=1 
C315: x8+x51 <=1 
C316: x8+x56-y8_56 <=1 
C317: x8+x59 <=1 
C318: x8+x61-y8_61 <=1 
C319: x8+x63-y8_63 <=1 
C320: x9+x10 <=1 
C321: x9+x11-y9_11 <=1 
C322: x9+x12 <=1 
C323: x9+x14-y9_14 <=1 
C324: x9+x15 <=1 
C325: x9+x18 <=1 
C326: x9+x20-y9_20 <=1 
C327: x9+x21 <=1 
C328: x9+x22 <=1 
C329: x9+x23-y9_23 <=1 
C330: x9+x24 <=1 
C331: x9+x25 <=1 
C332: x9+x26 <=1 
C333: x9+x27-y9_27 <=1 
C334: x9+x29-y9_29 <=1 
C335: x9+x30-y9_30 <=1 
C336: x9+x32 <=1 
C337: x9+x33-y9_33 <=1 
C338: x9+x36-y9_36 <=1 
C339: x9+x37-y9_37 <=1 
C340: x9+x38 <=1 
C341: x9+x39-y9_39 <=1 
C342: x9+x40-y9_40 <=1 
C343: x9+x41 <=1 
C344: x9+x42-y9_42 <=1 
C345: x9+x43-y9_43 <=1 
C346: x9+x45 <=1 
C347: x9+x46-y9_46 <=1 
C348: x9+x47 <=1 
C349: x9+x48 <=1 
C350: x9+x49-y9_49 <=1 
C351: x9+x50-y9_50 <=1 
C352: x9+x51-y9_51 <=1 
C353: x9+x52 <=1 
C354: x9+x55-y9_55 <=1 
C355: x9+x56-y9_56 <=1 
C356: x9+x57 <=1 
C357: x9+x58-y9_58 <=1 
C358: x9+x59-y9_59 <=1 
C359: x9+x61 <=1 
C360: x9+x62-y9_62 <=1 
C361: x9+x63 <=1 
C362: x10+x16 <=1 
C363: x10+x17 <=1 
C364: x10+x19 <=1 
C365: x10+x20-y10_20 <=1 
C366: x10+x21-y10_21 <=1 
C367: x10+x22-y10_22 <=1 
C368: x10+x23 <=1 
C369: x10+x26-y10_26 <=1 
C370: x10+x27-y10_27 <=1 
C371: x10+x28-y10_28 <=1 
C372: x10+x29 <=1 
C373: x10+x30-y10_30 <=1 
C374: x10+x32-y10_32 <=1 
C375: x10+x33-y10_33 <=1 
C376: x10+x35-y10_35 <=1 
C377: x10+x37 <=1 
C378: x10+x38 <=1 
C379: x10+x41 <=1 
C380: x10+x42-y10_42 <=1 
C381: x10+x43 <=1 
C382: x10+x44 <=1 
C383: x10+x45 <=1 
C384: x10+x46-y10_46 <=1 
C385: x10+x48 <=1 
C386: x10+x49-y10_49 <=1 
C387: x10+x50-y10_50 <=1 
C388: x10+x51-y10_51 <=1 
C389: x10+x52-y10_52 <=1 
C390: x10+x53-y10_53 <=1 
C391: x10+x54-y10_54 <=1 
C392: x10+x57 <=1 
C393: x10+x58 <=1 
C394: x10+x59-y10_59 <=1 
C395: x10+x60-y10_60 <=1 
C396: x10+x62-y10_62 <=1 
C397: x11+x12-y11_12 <=1 
C398: x11+x13-y11_13 <=1 
C399: x11+x17 <=1 
C400: x11+x19 <=1 
C401: x11+x20-y11_20 <=1 
C402: x11+x21-y11_21 <=1 
C403: x11+x22 <=1 
C404: x11+x23-y11_23 <=1 
C405: x11+x24 <=1 
C406: x11+x25 <=1 
C407: x11+x26-y11_26 <=1 
C408: x11+x27 <=1 
C409: x11+x30 <=1 
C410: x11+x31-y11_31 <=1 
C411: x11+x36-y11_36 <=1 
C412: x11+x37 <=1 
C413: x11+x38 <=1 
C414: x11+x40 <=1 
C415: x11+x43-y11_43 <=1 
C416: x11+x44-y11_44 <=1 
C417: x11+x45-y11_45 <=1 
C418: x11+x46 <=1 
C419: x11+x49-y11_49 <=1 
C420: x11+x51 <=1 
C421: x11+x52-y11_52 <=1 
C422: x11+x53-y11_53 <=1 
C423: x11+x54-y11_54 <=1 
C424: x11+x56 <=1 
C425: x11+x62 <=1 
C426: x11+x63 <=1 
C427: x12+x13-y12_13 <=1 
C428: x12+x14-y12_14 <=1 
C429: x12+x18-y12_18 <=1 
C430: x12+x19-y12_19 <=1 
C431: x12+x20 <=1 
C432: x12+x21 <=1 
C433: x12+x22 <=1 
C434: x12+x24 <=1 
C435: x12+x27 <=1 
C436: x12+x28-y12_28 <=1 
C437: x12+x29 <=1 
C438: x12+x30-y12_30 <=1 
C439: x12+x31-y12_31 <=1 
C440: x12+x32-y12_32 <=1 
C441: x12+x35-y12_35 <=1 
C442: x12+x38 <=1 
C443: x12+x41-y12_41 <=1 
C444: x12+x42 <=1 
C445: x12+x43-y12_43 <=1 
C446: x12+x45 <=1 
C447: x12+x46-y12_46 <=1 
C448: x12+x47 <=1 
C449: x12+x49-y12_49 <=1 
C450: x12+x50 <=1 
C451: x12+x51 <=1 
C452: x12+x52 <=1 
C453: x12+x54-y12_54 <=1 
C454: x12+x56-y12_56 <=1 
C455: x12+x57-y12_57 <=1 
C456: x12+x58-y12_58 <=1 
C457: x12+x59-y12_59 <=1 
C458: x12+x60-y12_60 <=1 
C459: x12+x63-y12_63 <=1 
C460: x13+x14-y13_14 <=1 
C461: x13+x17 <=1 
C462: x13+x19-y13_19 <=1 
C463: x13+x20 <=1 
C464: x13+x22-y13_22 <=1 
C465: x13+x24-y13_24 <=1 
C466: x13+x26-y13_26 <=1 
C467: x13+x28 <=1 
C468: x13+x29 <=1 
C469: x13+x31-y13_31 <=1 
C470: x13+x32 <=1 
C471: x13+x34 <=1 
C472: x13+x35 <=1 
C473: x13+x39 <=1 
C474: x13+x40-y13_40 <=1 
C475: x13+x41-y13_41 <=1 
C476: x13+x42-y13_42 <=1 
C477: x13+x44 <=1 
C478: x13+x46 <=1 
C479: x13+x49-y13_49 <=1 
C480: x13+x50 <=1 
C481: x13+x52 <=1 
C482: x13+x53-y13_53 <=1 
C483: x13+x55 <=1 
C484: x13+x57 <=1 
C485: x13+x58-y13_58 <=1 
C486: x13+x59 <=1 
C487: x13+x60 <=1 
C488: x13+x62-y13_62 <=1 
C489: x13+x63-y13_63 <=1 
C490: x14+x16-y14_16 <=1 
C491: x14+x19-y14_19 <=1 
C492: x14+x21-y14_21 <=1 
C493: x14+x24-y14_24 <=1 
C494: x14+x25-y14_25 <=1 
C495: x14+x26-y14_26 <=1 
C496: x14+x27 <=1 
C497: x14+x28-y14_28 <=1 
C498: x14+x31 <=1 
C499: x14+x38 <=1 
C500: x14+x39 <=1 
C501: x14+x44-y14_44 <=1 
C502: x14+x45-y14_45 <=1 
C503: x14+x46-y14_46 <=1 
C504: x14+x47 <=1 
C505: x14+x48 <=1 
C506: x14+x50 <=1 
C507: x14+x52-y14_52 <=1 
C508: x14+x55 <=1 
C509: x14+x56 <=1 
C510: x14+x57 <=1 
C511: x14+x61 <=1 
C512: x14+x62-y14_62 <=1 
C513: x14+x63 <=1 
C514: x15+x16-y15_16 <=1 
C515: x15+x17-y15_17 <=1 
C516: x15+x19 <=1 
C517: x15+x20-y15_20 <=1 
C518: x15+x21 <=1 
C519: x15+x22-y15_22 <=1 
C520: x15+x25-y15_25 <=1 
C521: x15+x27-y15_27 <=1 
C522: x15+x28 <=1 
C523: x15+x30 <=1 
C524: x15+x31 <=1 
C525: x15+x32-y15_32 <=1 
C526: x15+x34 <=1 
C527: x15+x35-y15_35 <=1 
C528: x15+x37 <=1 
C529: x15+x38-y15_38 <=1 
C530: x15+x39-y15_39 <=1 
C531: x15+x41-y15_41 <=1 
C532: x15+x42-y15_42 <=1 
C533: x15+x46 <=1 
C534: x15+x48 <=1 
C535: x15+x50 <=1 
C536: x15+x51 <=1 
C537: x15+x53-y15_53 <=1 
C538: x15+x56-y15_56 <=1 
C539: x15+x57 <=1 
C540: x15+x58-y15_58 <=1 
C541: x15+x59 <=1 
C542: x15+x60 <=1 
C543: x15+x61 <=1 
C544: x15+x63-y15_63 <=1 
C545: x16+x18-y16_18 <=1 
C546: x16+x21-y16_21 <=1 
C547: x16+x24-y16_24 <=1 
C548: x16+x25-y16_25 <=1 
C549: x16+x26 <=1 
C550: x16+x27-y16_27 <=1 
C551: x16+x28-y16_28 <=1 
C552: x16+x29-y16_29 <=1 
C553: x16+x30 <=1 
C554: x16+x31-y16_31 <=1 
C555: x16+x34-y16_34 <=1 
C556: x16+x36 <=1 
C557: x16+x39 <=1 
C558: x16+x40-y16_40 <=1 
C559: x16+x41 <=1 
C560: x16+x42-y16_42 <=1 
C561: x16+x43-y16_43 <=1 
C562: x16+x44-y16_44 <=1 
C563: x16+x45-y16_45 <=1 
C564: x16+x46 <=1 
C565: x16+x49 <=1 
C566: x16+x50 <=1 
C567: x16+x51 <=1 
C568: x16+x53 <=1 
C569: x16+x54-y16_54 <=1 
C570: x16+x55 <=1 
C571: x16+x56-y16_56 <=1 
C572: x16+x57-y16_57 <=1 
C573: x16+x58-y16_58 <=1 
C574: x16+x60-y16_60 <=1 
C575: x16+x61-y16_61 <=1 
C576: x17+x19 <=1 
C577: x17+x22-y17_22 <=1 
C578: x17+x23 <=1 
C579: x17+x25 <=1 
C580: x17+x26-y17_26 <=1 
C581: x17+x27-y17_27 <=1 
C582: x17+x29-y17_29 <=1 
C583: x17+x31-y17_31 <=1 
C584: x17+x32-y17_32 <=1 
C585: x17+x33 <=1 
C586: x17+x34 <=1 
C587: x17+x35 <=1 
C588: x17+x36-y17_36 <=1 
C589: x17+x38-y17_38 <=1 
C590: x17+x39-y17_39 <=1 
C591: x17+x40-y17_40 <=1 
C592: x17+x42 <=1 
C593: x17+x45 <=1 
C594: x17+x47 <=1 
C595: x17+x50 <=1 
C596: x17+x55-y17_55 <=1 
C597: x17+x57-y17_57 <=1 
C598: x17+x59-y17_59 <=1 
C599: x17+x60 <=1 
C600: x17+x61-y17_61 <=1 
C601: x17+x63-y17_63 <=1 
C602: x18+x20 <=1 
C603: x18+x21-y18_21 <=1 
C604: x18+x22-y18_22 <=1 
C605: x18+x23 <=1 
C606: x18+x24-y18_24 <=1 
C607: x18+x26 <=1 
C608: x18+x27-y18_27 <=1 
C609: x18+x29 <=1 
C610: x18+x30-y18_30 <=1 
C611: x18+x33-y18_33 <=1 
C612: x18+x35 <=1 
C613: x18+x37-y18_37 <=1 
C614: x18+x38 <=1 
C615: x18+x39 <=1 
C616: x18+x42 <=1 
C617: x18+x43-y18_43 <=1 
C618: x18+x44 <=1 
C619: x18+x45-y18_45 <=1 
C620: x18+x47-y18_47 <=1 
C621: x18+x48 <=1 
C622: x18+x49 <=1 
C623: x18+x52 <=1 
C624: x18+x53 <=1 
C625: x18+x55-y18_55 <=1 
C626: x18+x56 <=1 
C627: x18+x58-y18_58 <=1 
C628: x18+x59-y18_59 <=1 
C629: x18+x60 <=1 
C630: x18+x61-y18_61 <=1 
C631: x18+x62-y18_62 <=1 
C632: x18+x63-y18_63 <=1 
C633: x19+x20 <=1 
C634: x19+x21 <=1 
C635: x19+x22 <=1 
C636: x19+x24 <=1 
C637: x19+x25-y19_25 <=1 
C638: x19+x26 <=1 
C639: x19+x29 <=1 
C640: x19+x32 <=1 
C641: x19+x35-y19_35 <=1 
C642: x19+x36 <=1 
C643: x19+x37-y19_37 <=1 
C644: x19+x38-y19_38 <=1 
C645: x19+x40-y19_40 <=1 
C646: x19+x41 <=1 
C647: x19+x42-y19_42 <=1 
C648: x19+x44-y19_44 <=1 
C649: x19+x45 <=1 
C650: x19+x49-y19_49 <=1 
C651: x19+x51-y19_51 <=1 
C652: x19+x52 <=1 
C653: x19+x53-y19_53 <=1 
C654: x19+x56 <=1 
C655: x19+x58-y19_58 <=1 
C656: x19+x60-y19_60 <=1 
C657: x19+x61 <=1 
C658: x19+x62 <=1 
C659: x19+x63-y19_63 <=1 
C660: x20+x23-y20_23 <=1 
C661: x20+x26 <=1 
C662: x20+x27 <=1 
C663: x20+x28-y20_28 <=1 
C664: x20+x30 <=1 
C665: x20+x31-y20_31 <=1 
C666: x20+x32-y20_32 <=1 
C667: x20+x34-y20_34 <=1 
C668: x20+x37-y20_37 <=1 
C669: x20+x39-y20_39 <=1 
C670: x20+x42 <=1 
C671: x20+x43 <=1 
C672: x20+x44-y20_44 <=1 
C673: x20+x45 <=1 
C674: x20+x48-y20_48 <=1 
C675: x20+x49 <=1 
C676: x20+x53-y20_53 <=1 
C677: x20+x57-y20_57 <=1 
C678: x20+x63 <=1 
C679: x21+x29 <=1 
C680: x21+x30-y21_30 <=1 
C681: x21+x31 <=1 
C682: x21+x33 <=1 
C683: x21+x37-y21_37 <=1 
C684: x21+x39-y21_39 <=1 
C685: x21+x40 <=1 
C686: x21+x42-y21_42 <=1 
C687: x21+x43-y21_43 <=1 
C688: x21+x46-y21_46 <=1 
C689: x21+x50 <=1 
C690: x21+x52 <=1 
C691: x21+x53 <=1 
C692: x21+x59-y21_59 <=1 
C693: x21+x60-y21_60 <=1 
C694: x21+x61 <=1 
C695: x22+x24 <=1 
C696: x22+x25-y22_25 <=1 
C697: x22+x27-y22_27 <=1 
C698: x22+x30-y22_30 <=1 
C699: x22+x31-y22_31 <=1 
C700: x22+x34 <=1 
C701: x22+x35 <=1 
C702: x22+x36-y22_36 <=1 
C703: x22+x37-y22_37 <=1 
C704: x22+x38-y22_38 <=1 
C705: x22+x39-y22_39 <=1 
C706: x22+x41 <=1 
C707: x22+x43 <=1 
C708: x22+x44 <=1 
C709: x22+x45 <=1 
C710: x22+x47 <=1 
C711: x22+x48-y22_48 <=1 
C712: x22+x49-y22_49 <=1 
C713: x22+x50-y22_50 <=1 
C714: x22+x51-y22_51 <=1 
C715: x22+x54 <=1 
C716: x22+x58 <=1 
C717: x22+x59 <=1 
C718: x22+x62 <=1 
C719: x23+x24-y23_24 <=1 
C720: x23+x26-y23_26 <=1 
C721: x23+x29 <=1 
C722: x23+x32 <=1 
C723: x23+x36-y23_36 <=1 
C724: x23+x37-y23_37 <=1 
C725: x23+x38-y23_38 <=1 
C726: x23+x39 <=1 
C727: x23+x41-y23_41 <=1 
C728: x23+x42 <=1 
C729: x23+x43-y23_43 <=1 
C730: x23+x44-y23_44 <=1 
C731: x23+x45 <=1 
C732: x23+x47-y23_47 <=1 
C733: x23+x49 <=1 
C734: x23+x50-y23_50 <=1 
C735: x23+x51 <=1 
C736: x23+x52-y23_52 <=1 
C737: x23+x55 <=1 
C738: x23+x56 <=1 
C739: x23+x58-y23_58 <=1 
C740: x23+x59 <=1 
C741: x23+x62-y23_62 <=1 
C742: x24+x25 <=1 
C743: x24+x26-y24_26 <=1 
C744: x24+x27 <=1 
C745: x24+x29-y24_29 <=1 
C746: x24+x32 <=1 
C747: x24+x33-y24_33 <=1 
C748: x24+x34-y24_34 <=1 
C749: x24+x35-y24_35 <=1 
C750: x24+x41-y24_41 <=1 
C751: x24+x42 <=1 
C752: x24+x43-y24_43 <=1 
C753: x24+x45-y24_45 <=1 
C754: x24+x47-y24_47 <=1 
C755: x24+x48 <=1 
C756: x24+x49-y24_49 <=1 
C757: x24+x50-y24_50 <=1 
C758: x24+x52 <=1 
C759: x24+x56 <=1 
C760: x24+x57 <=1 
C761: x24+x58-y24_58 <=1 
C762: x24+x59-y24_59 <=1 
C763: x24+x60 <=1 
C764: x24+x62-y24_62 <=1 
C765: x24+x63 <=1 
C766: x25+x26-y25_26 <=1 
C767: x25+x27-y25_27 <=1 
C768: x25+x28 <=1 
C769: x25+x29-y25_29 <=1 
C770: x25+x31-y25_31 <=1 
C771: x25+x32 <=1 
C772: x25+x35 <=1 
C773: x25+x36 <=1 
C774: x25+x38-y25_38 <=1 
C775: x25+x39 <=1 
C776: x25+x40 <=1 
C777: x25+x41-y25_41 <=1 
C778: x25+x42-y25_42 <=1 
C779: x25+x44 <=1 
C780: x25+x45 <=1 
C781: x25+x46 <=1 
C782: x25+x47-y25_47 <=1 
C783: x25+x51-y25_51 <=1 
C784: x25+x52-y25_52 <=1 
C785: x25+x53 <=1 
C786: x25+x54-y25_54 <=1 
C787: x25+x55-y25_55 <=1 
C788: x25+x56-y25_56 <=1 
C789: x25+x57 <=1 
C790: x25+x58-y25_58 <=1 
C791: x25+x59-y25_59 <=1 
C792: x25+x60 <=1 
C793: x25+x62 <=1 
C794: x25+x63-y25_63 <=1 
C795: x26+x27-y26_27 <=1 
C796: x26+x28 <=1 
C797: x26+x29-y26_29 <=1 
C798: x26+x32-y26_32 <=1 
C799: x26+x33-y26_33 <=1 
C800: x26+x35 <=1 
C801: x26+x36-y26_36 <=1 
C802: x26+x37-y26_37 <=1 
C803: x26+x40 <=1 
C804: x26+x43-y26_43 <=1 
C805: x26+x46-y26_46 <=1 
C806: x26+x49-y26_49 <=1 
C807: x26+x50 <=1 
C808: x26+x51-y26_51 <=1 
C809: x26+x52-y26_52 <=1 
C810: x26+x53 <=1 
C811: x26+x54-y26_54 <=1 
C812: x26+x55-y26_55 <=1 
C813: x26+x56 <=1 
C814: x26+x57-y26_57 <=1 
C815: x26+x59 <=1 
C816: x26+x60 <=1 
C817: x26+x61 <=1 
C818: x26+x62-y26_62 <=1 
C819: x26+x63-y26_63 <=1 
C820: x27+x29 <=1 
C821: x27+x31 <=1 
C822: x27+x32 <=1 
C823: x27+x33-y27_33 <=1 
C824: x27+x34 <=1 
C825: x27+x35-y27_35 <=1 
C826: x27+x36 <=1 
C827: x27+x38 <=1 
C828: x27+x39 <=1 
C829: x27+x40-y27_40 <=1 
C830: x27+x43-y27_43 <=1 
C831: x27+x44 <=1 
C832: x27+x45 <=1 
C833: x27+x47-y27_47 <=1 
C834: x27+x50-y27_50 <=1 
C835: x27+x51 <=1 
C836: x27+x52 <=1 
C837: x27+x54 <=1 
C838: x27+x55-y27_55 <=1 
C839: x27+x56 <=1 
C840: x27+x58-y27_58 <=1 
C841: x27+x59 <=1 
C842: x27+x60 <=1 
C843: x27+x62-y27_62 <=1 
C844: x27+x63 <=1 
C845: x28+x30 <=1 
C846: x28+x32-y28_32 <=1 
C847: x28+x36 <=1 
C848: x28+x38 <=1 
C849: x28+x39-y28_39 <=1 
C850: x28+x40 <=1 
C851: x28+x43 <=1 
C852: x28+x45-y28_45 <=1 
C853: x28+x46 <=1 
C854: x28+x47-y28_47 <=1 
C855: x28+x48-y28_48 <=1 
C856: x28+x49 <=1 
C857: x28+x50 <=1 
C858: x28+x53-y28_53 <=1 
C859: x28+x54-y28_54 <=1 
C860: x28+x57-y28_57 <=1 
C861: x28+x58 <=1 
C862: x28+x59-y28_59 <=1 
C863: x28+x60-y28_60 <=1 
C864: x28+x61-y28_61 <=1 
C865: x28+x62-y28_62 <=1 
C866: x28+x63-y28_63 <=1 
C867: x29+x30-y29_30 <=1 
C868: x29+x31-y29_31 <=1 
C869: x29+x32-y29_32 <=1 
C870: x29+x33 <=1 
C871: x29+x36 <=1 
C872: x29+x37 <=1 
C873: x29+x39 <=1 
C874: x29+x40-y29_40 <=1 
C875: x29+x41-y29_41 <=1 
C876: x29+x43 <=1 
C877: x29+x44 <=1 
C878: x29+x45-y29_45 <=1 
C879: x29+x46-y29_46 <=1 
C880: x29+x49 <=1 
C881: x29+x50-y29_50 <=1 
C882: x29+x51 <=1 
C883: x29+x52 <=1 
C884: x29+x53 <=1 
C885: x29+x54-y29_54 <=1 
C886: x29+x56 <=1 
C887: x29+x58 <=1 
C888: x29+x60 <=1 
C889: x29+x61-y29_61 <=1 
C890: x29+x62-y29_62 <=1 
C891: x29+x63 <=1 
C892: x30+x34-y30_34 <=1 
C893: x30+x36-y30_36 <=1 
C894: x30+x37 <=1 
C895: x30+x39-y30_39 <=1 
C896: x30+x40 <=1 
C897: x30+x43-y30_43 <=1 
C898: x30+x44 <=1 
C899: x30+x45-y30_45 <=1 
C900: x30+x46 <=1 
C901: x30+x47 <=1 
C902: x30+x48-y30_48 <=1 
C903: x30+x52-y30_52 <=1 
C904: x30+x53-y30_53 <=1 
C905: x30+x55-y30_55 <=1 
C906: x30+x56-y30_56 <=1 
C907: x30+x57-y30_57 <=1 
C908: x30+x58-y30_58 <=1 
C909: x30+x59-y30_59 <=1 
C910: x30+x60 <=1 
C911: x30+x61-y30_61 <=1 
C912: x31+x34-y31_34 <=1 
C913: x31+x36 <=1 
C914: x31+x38 <=1 
C915: x31+x39 <=1 
C916: x31+x41-y31_41 <=1 
C917: x31+x42-y31_42 <=1 
C918: x31+x43-y31_43 <=1 
C919: x31+x44 <=1 
C920: x31+x47 <=1 
C921: x31+x50 <=1 
C922: x31+x51 <=1 
C923: x31+x53-y31_53 <=1 
C924: x31+x54 <=1 
C925: x31+x55-y31_55 <=1 
C926: x31+x57-y31_57 <=1 
C927: x31+x58-y31_58 <=1 
C928: x31+x61 <=1 
C929: x32+x33 <=1 
C930: x32+x34-y32_34 <=1 
C931: x32+x35-y32_35 <=1 
C932: x32+x36 <=1 
C933: x32+x38 <=1 
C934: x32+x39-y32_39 <=1 
C935: x32+x41-y32_41 <=1 
C936: x32+x43-y32_43 <=1 
C937: x32+x44-y32_44 <=1 
C938: x32+x45-y32_45 <=1 
C939: x32+x47-y32_47 <=1 
C940: x32+x49 <=1 
C941: x32+x54 <=1 
C942: x32+x55-y32_55 <=1 
C943: x32+x56 <=1 
C944: x32+x57 <=1 
C945: x32+x58-y32_58 <=1 
C946: x32+x61-y32_61 <=1 
C947: x32+x62-y32_62 <=1 
C948: x32+x63 <=1 
C949: x33+x35-y33_35 <=1 
C950: x33+x36 <=1 
C951: x33+x38 <=1 
C952: x33+x39-y33_39 <=1 
C953: x33+x40-y33_40 <=1 
C954: x33+x41-y33_41 <=1 
C955: x33+x42-y33_42 <=1 
C956: x33+x43-y33_43 <=1 
C957: x33+x46 <=1 
C958: x33+x48 <=1 
C959: x33+x49 <=1 
C960: x33+x50-y33_50 <=1 
C961: x33+x53-y33_53 <=1 
C962: x33+x54 <=1 
C963: x33+x55-y33_55 <=1 
C964: x33+x57 <=1 
C965: x33+x61 <=1 
C966: x33+x62-y33_62 <=1 
C967: x33+x63-y33_63 <=1 
C968: x34+x35 <=1 
C969: x34+x37-y34_37 <=1 
C970: x34+x38-y34_38 <=1 
C971: x34+x41 <=1 
C972: x34+x44-y34_44 <=1 
C973: x34+x46 <=1 
C974: x34+x47 <=1 
C975: x34+x49 <=1 
C976: x34+x50 <=1 
C977: x34+x54-y34_54 <=1 
C978: x34+x55 <=1 
C979: x34+x56-y34_56 <=1 
C980: x34+x58-y34_58 <=1 
C981: x34+x59-y34_59 <=1 
C982: x34+x62 <=1 
C983: x34+x63-y34_63 <=1 
C984: x35+x36-y35_36 <=1 
C985: x35+x37-y35_37 <=1 
C986: x35+x40-y35_40 <=1 
C987: x35+x41 <=1 
C988: x35+x42-y35_42 <=1 
C989: x35+x43-y35_43 <=1 
C990: x35+x44-y35_44 <=1 
C991: x35+x46-y35_46 <=1 
C992: x35+x47-y35_47 <=1 
C993: x35+x49-y35_49 <=1 
C994: x35+x50-y35_50 <=1 
C995: x35+x51-y35_51 <=1 
C996: x35+x52-y35_52 <=1 
C997: x35+x53 <=1 
C998: x35+x54-y35_54 <=1 
C999: x35+x55 <=1 
C1000: x35+x56 <=1 
C1001: x35+x57-y35_57 <=1 
C1002: x35+x58 <=1 
C1003: x35+x60-y35_60 <=1 
C1004: x35+x61-y35_61 <=1 
C1005: x35+x62 <=1 
C1006: x36+x37-y36_37 <=1 
C1007: x36+x40-y36_40 <=1 
C1008: x36+x41 <=1 
C1009: x36+x44 <=1 
C1010: x36+x45 <=1 
C1011: x36+x46 <=1 
C1012: x36+x49 <=1 
C1013: x36+x50-y36_50 <=1 
C1014: x36+x51-y36_51 <=1 
C1015: x36+x52-y36_52 <=1 
C1016: x36+x54 <=1 
C1017: x36+x56 <=1 
C1018: x36+x57 <=1 
C1019: x36+x60 <=1 
C1020: x36+x61-y36_61 <=1 
C1021: x36+x62-y36_62 <=1 
C1022: x36+x63-y36_63 <=1 
C1023: x37+x38-y37_38 <=1 
C1024: x37+x39-y37_39 <=1 
C1025: x37+x43-y37_43 <=1 
C1026: x37+x44 <=1 
C1027: x37+x47 <=1 
C1028: x37+x48-y37_48 <=1 
C1029: x37+x52 <=1 
C1030: x37+x53-y37_53 <=1 
C1031: x37+x54-y37_54 <=1 
C1032: x37+x55 <=1 
C1033: x37+x56 <=1 
C1034: x37+x57-y37_57 <=1 
C1035: x37+x58-y37_58 <=1 
C1036: x37+x59 <=1 
C1037: x37+x61 <=1 
C1038: x37+x62 <=1 
C1039: x37+x63 <=1 
C1040: x38+x39-y38_39 <=1 
C1041: x38+x40-y38_40 <=1 
C1042: x38+x43 <=1 
C1043: x38+x44-y38_44 <=1 
C1044: x38+x46-y38_46 <=1 
C1045: x38+x48 <=1 
C1046: x38+x49-y38_49 <=1 
C1047: x38+x50 <=1 
C1048: x38+x52 <=1 
C1049: x38+x54-y38_54 <=1 
C1050: x38+x56-y38_56 <=1 
C1051: x38+x59 <=1 
C1052: x38+x62-y38_62 <=1 
C1053: x39+x40 <=1 
C1054: x39+x41-y39_41 <=1 
C1055: x39+x43-y39_43 <=1 
C1056: x39+x46-y39_46 <=1 
C1057: x39+x47 <=1 
C1058: x39+x49 <=1 
C1059: x39+x50 <=1 
C1060: x39+x51 <=1 
C1061: x39+x53 <=1 
C1062: x39+x54-y39_54 <=1 
C1063: x39+x55-y39_55 <=1 
C1064: x39+x57 <=1 
C1065: x39+x58-y39_58 <=1 
C1066: x40+x43 <=1 
C1067: x40+x45-y40_45 <=1 
C1068: x40+x49 <=1 
C1069: x40+x50 <=1 
C1070: x40+x54 <=1 
C1071: x40+x55-y40_55 <=1 
C1072: x40+x56-y40_56 <=1 
C1073: x40+x58 <=1 
C1074: x40+x59 <=1 
C1075: x40+x62 <=1 
C1076: x41+x42 <=1 
C1077: x41+x43-y41_43 <=1 
C1078: x41+x44 <=1 
C1079: x41+x45-y41_45 <=1 
C1080: x41+x46 <=1 
C1081: x41+x49-y41_49 <=1 
C1082: x41+x51 <=1 
C1083: x41+x54-y41_54 <=1 
C1084: x41+x58 <=1 
C1085: x41+x60-y41_60 <=1 
C1086: x41+x63 <=1 
C1087: x42+x43 <=1 
C1088: x42+x46 <=1 
C1089: x42+x47-y42_47 <=1 
C1090: x42+x48-y42_48 <=1 
C1091: x42+x49-y42_49 <=1 
C1092: x42+x50 <=1 
C1093: x42+x51 <=1 
C1094: x42+x52 <=1 
C1095: x42+x53 <=1 
C1096: x42+x54-y42_54 <=1 
C1097: x42+x56-y42_56 <=1 
C1098: x42+x57 <=1 
C1099: x42+x58 <=1 
C1100: x42+x59-y42_59 <=1 
C1101: x42+x60 <=1 
C1102: x42+x62-y42_62 <=1 
C1103: x43+x45 <=1 
C1104: x43+x46 <=1 
C1105: x43+x49-y43_49 <=1 
C1106: x43+x50-y43_50 <=1 
C1107: x43+x53-y43_53 <=1 
C1108: x43+x54-y43_54 <=1 
C1109: x43+x56-y43_56 <=1 
C1110: x43+x58-y43_58 <=1 
C1111: x43+x59 <=1 
C1112: x43+x60 <=1 
C1113: x43+x61 <=1 
C1114: x43+x62-y43_62 <=1 
C1115: x43+x63-y43_63 <=1 
C1116: x44+x46 <=1 
C1117: x44+x49 <=1 
C1118: x44+x50-y44_50 <=1 
C1119: x44+x51 <=1 
C1120: x44+x53 <=1 
C1121: x44+x54 <=1 
C1122: x44+x55-y44_55 <=1 
C1123: x44+x59-y44_59 <=1 
C1124: x44+x60 <=1 
C1125: x44+x61-y44_61 <=1 
C1126: x44+x63-y44_63 <=1 
C1127: x45+x46 <=1 
C1128: x45+x47-y45_47 <=1 
C1129: x45+x50-y45_50 <=1 
C1130: x45+x51-y45_51 <=1 
C1131: x45+x52 <=1 
C1132: x45+x54-y45_54 <=1 
C1133: x45+x55 <=1 
C1134: x45+x56-y45_56 <=1 
C1135: x45+x57 <=1 
C1136: x45+x58 <=1 
C1137: x45+x60 <=1 
C1138: x45+x61 <=1 
C1139: x45+x62-y45_62 <=1 
C1140: x45+x63 <=1 
C1141: x46+x47 <=1 
C1142: x46+x48 <=1 
C1143: x46+x49 <=1 
C1144: x46+x50-y46_50 <=1 
C1145: x46+x51 <=1 
C1146: x46+x53 <=1 
C1147: x46+x56-y46_56 <=1 
C1148: x46+x57 <=1 
C1149: x46+x59 <=1 
C1150: x46+x60 <=1 
C1151: x46+x63 <=1 
C1152: x47+x48 <=1 
C1153: x47+x49-y47_49 <=1 
C1154: x47+x50 <=1 
C1155: x47+x51 <=1 
C1156: x47+x52-y47_52 <=1 
C1157: x47+x53 <=1 
C1158: x47+x54 <=1 
C1159: x47+x55 <=1 
C1160: x47+x57 <=1 
C1161: x47+x59 <=1 
C1162: x47+x61 <=1 
C1163: x47+x62 <=1 
C1164: x47+x63-y47_63 <=1 
C1165: x48+x49 <=1 
C1166: x48+x50-y48_50 <=1 
C1167: x48+x55 <=1 
C1168: x48+x56-y48_56 <=1 
C1169: x48+x59 <=1 
C1170: x48+x61-y48_61 <=1 
C1171: x48+x62 <=1 
C1172: x48+x63 <=1 
C1173: x49+x50 <=1 
C1174: x49+x52 <=1 
C1175: x49+x53 <=1 
C1176: x49+x56-y49_56 <=1 
C1177: x49+x57-y49_57 <=1 
C1178: x49+x59-y49_59 <=1 
C1179: x49+x60 <=1 
C1180: x49+x61 <=1 
C1181: x49+x62 <=1 
C1182: x49+x63-y49_63 <=1 
C1183: x50+x52-y50_52 <=1 
C1184: x50+x53 <=1 
C1185: x50+x54 <=1 
C1186: x50+x55 <=1 
C1187: x50+x57 <=1 
C1188: x50+x58 <=1 
C1189: x50+x59 <=1 
C1190: x50+x60-y50_60 <=1 
C1191: x50+x62 <=1 
C1192: x51+x52-y51_52 <=1 
C1193: x51+x53 <=1 
C1194: x51+x54-y51_54 <=1 
C1195: x51+x55 <=1 
C1196: x51+x59-y51_59 <=1 
C1197: x51+x60-y51_60 <=1 
C1198: x51+x63 <=1 
C1199: x52+x53 <=1 
C1200: x52+x55 <=1 
C1201: x52+x56 <=1 
C1202: x52+x57 <=1 
C1203: x52+x59 <=1 
C1204: x52+x60 <=1 
C1205: x52+x61-y52_61 <=1 
C1206: x52+x62 <=1 
C1207: x53+x54-y53_54 <=1 
C1208: x53+x63-y53_63 <=1 
C1209: x54+x55 <=1 
C1210: x54+x57 <=1 
C1211: x54+x59-y54_59 <=1 
C1212: x54+x63-y54_63 <=1 
C1213: x55+x56 <=1 
C1214: x55+x60-y55_60 <=1 
C1215: x55+x62 <=1 
C1216: x56+x57 <=1 
C1217: x56+x58 <=1 
C1218: x56+x60 <=1 
C1219: x57+x58-y57_58 <=1 
C1220: x57+x59-y57_59 <=1 
C1221: x57+x60 <=1 
C1222: x57+x62 <=1 
C1223: x57+x63-y57_63 <=1 
C1224: x58+x59 <=1 
C1225: x58+x61 <=1 
C1226: x58+x62 <=1 
C1227: x58+x63 <=1 
C1228: x59+x60 <=1 
C1229: x59+x61 <=1 
C1230: x59+x62 <=1 
C1231: x60+x61-y60_61 <=1 
C1232: x60+x63 <=1 
C1233: x61+x63 <=1 

binary
x0
x1
x2
x3
x4
x5
x6
x7
x8
x9
x10
x11
x12
x13
x14
x15
x16
x17
x18
x19
x20
x21
x22
x23
x24
x25
x26
x27
x28
x29
x30
x31
x32
x33
x34
x35
x36
x37
x38
x39
x40
x41
x42
x43
x44
x45
x46
x47
x48
x49
x50
x51
x52
x53
x54
x55
x56
x57
x58
x59
x60
x61
x62
x63
