problem_generation/data/GISP/train/er_n=64_m=1233_p=0.60_SET2_setparam=100.00_alpha=0.50_232.sol
objective value:                                 1176
x2                                                  1 	(obj:100)
x6                                                  1 	(obj:100)
x8                                                  1 	(obj:100)
x9                                                  1 	(obj:100)
x16                                                 1 	(obj:100)
x19                                                 1 	(obj:100)
x31                                                 1 	(obj:100)
x33                                                 1 	(obj:100)
x35                                                 1 	(obj:100)
x37                                                 1 	(obj:100)
x40                                                 1 	(obj:100)
x60                                                 1 	(obj:100)
y35_60                                              1 	(obj:-1)
y16_60                                              1 	(obj:-1)
y6_33                                               1 	(obj:-1)
y2_8                                                1 	(obj:-1)
y2_35                                               1 	(obj:-1)
y19_60                                              1 	(obj:-1)
y35_40                                              1 	(obj:-1)
y9_33                                               1 	(obj:-1)
y16_31                                              1 	(obj:-1)
y16_40                                              1 	(obj:-1)
y8_40                                               1 	(obj:-1)
y19_40                                              1 	(obj:-1)
y19_35                                              1 	(obj:-1)
y33_40                                              1 	(obj:-1)
y33_35                                              1 	(obj:-1)
y9_37                                               1 	(obj:-1)
y6_8                                                1 	(obj:-1)
y6_35                                               1 	(obj:-1)
y9_40                                               1 	(obj:-1)
y6_16                                               1 	(obj:-1)
y35_37                                              1 	(obj:-1)
y8_19                                               1 	(obj:-1)
y19_37                                              1 	(obj:-1)
y2_60                                               1 	(obj:-1)
